s td 132 12 143
b 1 1 2 14
b 2 12 13 26
b 3 118 131 132
b 4 130 142 143
b 5 2 3 14 15
b 6 11 12 25 26
b 7 3 4 16 30 44 58 72 86 100 114 128 140
b 8 4 16 18 30 44 58 72 86 100 114 128 140
b 9 4 18 30 32 44 58 72 86 100 114 128 140
b 10 4 18 32 44 46 58 72 86 100 114 128 140
b 11 4 18 32 46 58 60 72 86 100 114 128 140
b 12 4 18 32 46 60 72 74 86 100 114 128 140
b 13 4 18 32 46 60 74 86 88 100 114 128 140
b 14 4 18 32 46 60 74 88 100 102 114 128 140
b 15 4 18 32 46 60 74 88 102 114 116 128 140
b 16 4 18 32 46 60 74 88 102 116 117 128 140
b 17 4 6 18 32 46 60 74 88 102 116 117
b 18 4 5 6 18
b 19 6 18 20 32 46 60 74 88 102 116 117
b 20 6 20 32 46 60 74 88 102 103 116 117
b 21 6 20 32 46 60 74 88 89 102 103 117
b 22 6 20 32 46 60 74 75 88 89 103 117
b 23 6 20 32 46 60 61 74 75 89 103 117
b 24 6 20 32 46 47 60 61 75 89 103 117
b 25 6 20 32 33 46 47 61 75 89 103 117
b 26 6 20 33 47 61 75 89 91 103 117
b 27 6 20 33 47 61 75 77 89 91 103
b 28 6 20 33 47 61 63 75 77 89 91
b 29 6 20 33 47 61 62 63 75 77 91
b 30 6 20 33 47 48 61 62 63 77 91
b 31 6 20 33 34 47 48 62 63 77 91
b 32 6 20 34 48 49 62 63 77 91
b 33 6 20 34 35 48 49 63 77 91
b 34 6 20 21 34 35 49 63 77 91
b 35 6 7 20 21 35 49 63 77 91
b 36 7 21 35 49 63 65 77 91
b 37 7 21 35 49 51 63 65 77
b 38 7 21 35 37 49 51 63 65
b 39 7 21 23 35 37 49 51 65
b 40 7 11 21 23 35 37 51 65
b 41 7 9 11 21 23 35
b 42 7 8 9 21
b 43 9 10 11 23
b 44 9 21 22 23 35
b 45 11 23 37 39 51 65
b 46 11 23 25 37 39 51
b 47 11 23 24 25 37
b 48 11 25 26 39
b 49 25 37 38 39 51
b 50 39 51 52 65
b 51 23 35 36 37 49
b 52 37 49 50 51 63
b 53 51 63 64 65 77
b 54 65 77 78 91
b 55 63 75 76 77 89
b 56 77 89 90 91 103
b 57 91 103 104 117
b 58 6 18 19 20 32
b 59 116 117 128 140 142
b 60 116 117 128 129 142
b 61 128 140 141 142
b 62 102 114 115 116 128
b 63 88 100 101 102 114
b 64 74 86 87 88 100
b 65 60 72 73 74 86
b 66 46 58 59 60 72
b 67 32 44 45 46 58
b 68 18 30 31 32 44
b 69 4 16 17 18 30
b 70 3 16 30 44 58 72 86 100 114 126 128 140
b 71 3 16 30 44 58 72 86 100 112 114 126 140
b 72 3 16 30 44 58 72 86 98 100 112 126 140
b 73 3 16 30 44 58 72 84 86 98 112 126 140
b 74 3 16 30 44 58 70 72 84 98 112 126 140
b 75 3 16 30 44 56 58 70 84 98 112 126 140
b 76 3 16 30 42 44 56 70 84 98 112 126 140
b 77 3 16 28 30 42 56 70 84 98 112 126 140
b 78 3 14 16 28 42 56 70 84 98 112 126 140
b 79 3 14 15 16 28
b 80 14 28 42 56 70 84 98 112 126 138 140
b 81 14 28 42 56 70 84 98 112 124 126 138
b 82 14 28 42 56 70 84 98 110 112 124 138
b 83 14 28 42 56 70 84 96 98 110 124 138
b 84 14 28 42 56 70 82 84 96 110 124 138
b 85 14 28 42 56 68 70 82 96 110 124 138
b 86 14 28 42 54 56 68 82 96 110 124 138
b 87 14 28 42 54 66 68 82 96 110 124 138
b 88 14 28 40 42 54 66
b 89 14 27 28 40
b 90 28 40 41 42 54
b 91 40 53 54 66
b 92 54 66 68 80 82 96 110 124 138
b 93 54 66 67 68 80
b 94 66 68 80 82 94 96 110 124 138
b 95 66 80 82 94 96 108 110 124 138
b 96 66 80 94 96 108 110 122 124 138
b 97 66 80 94 108 110 122 124 134 138
b 98 66 80 92 94 108 122 134
b 99 66 79 80 92
b 100 80 92 94 106 108 122 134
b 101 80 92 93 94 106
b 102 92 94 106 108 120 122 134
b 103 92 106 120 132 134
b 104 92 106 119 120 132
b 105 92 105 106 119 132
b 106 120 132 133 134
b 107 94 106 107 108 120
b 108 108 120 121 122 134
b 109 110 122 124 134 136 138
b 110 110 122 123 124 136
b 111 122 134 135 136
b 112 124 136 137 138
b 113 96 108 109 110 122
b 114 82 94 95 96 108
b 115 68 80 81 82 94
b 116 42 54 55 56 68
b 117 56 68 69 70 82
b 118 70 82 83 84 96
b 119 84 96 97 98 110
b 120 98 110 111 112 124
b 121 112 124 125 126 138
b 122 126 138 139 140
b 123 16 28 29 30 42
b 124 30 42 43 44 56
b 125 44 56 57 58 70
b 126 58 70 71 72 84
b 127 72 84 85 86 98
b 128 86 98 99 100 112
b 129 100 112 113 114 126
b 130 114 126 127 128 140
b 131 105 118 119 132
b 132 117 129 130 142
1 5
2 6
3 131
4 132
5 79
6 48
7 8
7 70
8 9
8 69
9 10
9 68
10 11
10 67
11 12
11 66
12 13
12 65
13 14
13 64
14 15
14 63
15 16
15 62
16 17
16 59
17 18
17 19
19 20
19 58
20 21
21 22
22 23
23 24
24 25
25 26
26 27
26 57
27 28
27 56
28 29
28 55
29 30
30 31
31 32
32 33
33 34
34 35
35 36
36 37
36 54
37 38
37 53
38 39
38 52
39 40
39 51
40 41
40 45
41 42
41 43
41 44
45 46
45 50
46 47
46 48
46 49
59 60
59 61
60 132
70 71
70 130
71 72
71 129
72 73
72 128
73 74
73 127
74 75
74 126
75 76
75 125
76 77
76 124
77 78
77 123
78 79
78 80
80 81
80 122
81 82
81 121
82 83
82 120
83 84
83 119
84 85
84 118
85 86
85 117
86 87
86 116
87 88
87 92
88 89
88 90
88 91
92 93
92 94
94 95
94 115
95 96
95 114
96 97
96 113
97 98
97 109
98 99
98 100
100 101
100 102
102 103
102 107
102 108
103 104
103 106
104 105
105 131
109 110
109 111
109 112
